
n_res = 4;
rcap = [16, 14, 152, 167];
rtype = [1, 1, 2, 2];
n_tasks = 100;
modes =  [{1, 2, 3}, {4, 5, 6}, {7, 8, 9}, {10, 11, 12}, {13, 14, 15}, {16, 17, 18}, {19, 20, 21}, {22, 23, 24}, {25, 26, 27}, {28, 29, 30}, {31, 32, 33}, {34, 35, 36}, {37, 38, 39}, {40, 41, 42}, {43, 44, 45}, {46, 47, 48}, {49, 50, 51}, {52, 53, 54}, {55, 56, 57}, {58, 59, 60}, {61, 62, 63}, {64, 65, 66}, {67, 68, 69}, {70, 71, 72}, {73, 74, 75}, {76, 77, 78}, {79, 80, 81}, {82, 83, 84}, {85, 86, 87}, {88, 89, 90}, {91, 92, 93}, {94, 95, 96}, {97, 98, 99}, {100, 101, 102}, {103, 104, 105}, {106, 107, 108}, {109, 110, 111}, {112, 113, 114}, {115, 116, 117}, {118, 119, 120}, {121, 122, 123}, {124, 125, 126}, {127, 128, 129}, {130, 131, 132}, {133, 134, 135}, {136, 137, 138}, {139, 140, 141}, {142, 143, 144}, {145, 146, 147}, {148, 149, 150}, {151, 152, 153}, {154, 155, 156}, {157, 158, 159}, {160, 161, 162}, {163, 164, 165}, {166, 167, 168}, {169, 170, 171}, {172, 173, 174}, {175, 176, 177}, {178, 179, 180}, {181, 182, 183}, {184, 185, 186}, {187, 188, 189}, {190, 191, 192}, {193, 194, 195}, {196, 197, 198}, {199, 200, 201}, {202, 203, 204}, {205, 206, 207}, {208, 209, 210}, {211, 212, 213}, {214, 215, 216}, {217, 218, 219}, {220, 221, 222}, {223, 224, 225}, {226, 227, 228}, {229, 230, 231}, {232, 233, 234}, {235, 236, 237}, {238, 239, 240}, {241, 242, 243}, {244, 245, 246}, {247, 248, 249}, {250, 251, 252}, {253, 254, 255}, {256, 257, 258}, {259, 260, 261}, {262, 263, 264}, {265, 266, 267}, {268, 269, 270}, {271, 272, 273}, {274, 275, 276}, {277, 278, 279}, {280, 281, 282}, {283, 284, 285}, {286, 287, 288}, {289, 290, 291}, {292, 293, 294}, {295, 296, 297}, {298, 299, 300}];
succ =  [{47, 45, 41, 40, 39, 32, 29, 25, 24, 16, 15}, {49, 47, 45, 40, 36, 35, 30, 27, 26, 17}, {49, 48, 45, 44, 41, 38, 36, 35, 30, 27, 21}, {49, 38, 36, 34, 33, 31, 26, 25, 18}, {63, 60, 53, 50, 49, 47, 45, 44, 43, 40, 38, 37, 36, 34, 33}, {60, 57, 53, 51, 50, 49, 46, 45, 44, 41, 36, 35, 34, 26}, {53, 52, 50, 49, 47, 46, 41, 40, 37, 36, 30, 25}, {63, 53, 50, 49, 46, 45, 44, 37, 35, 33, 31, 30}, {53, 50, 49, 48, 44, 41, 40, 39, 36, 34, 33, 26}, {53, 51, 49, 48, 46, 45, 40, 38, 34, 30, 26}, {63, 53, 52, 51, 50, 48, 46, 45, 43, 38, 37, 36, 31}, {60, 53, 52, 46, 44, 39, 34, 33, 26}, {58, 51, 46, 43, 41, 38, 36, 34, 28}, {59, 58, 53, 50, 49, 43, 39, 35, 34, 33, 31}, {60, 57, 53, 51, 49, 46, 36, 26}, {75, 63, 58, 53, 50, 49, 48, 46, 38, 35, 31}, {63, 62, 60, 57, 53, 46, 44, 37, 34, 33}, {84, 75, 63, 61, 57, 53, 51, 50, 47, 46, 30}, {66, 63, 53, 51, 45, 37, 34, 30}, {53, 51, 45, 37, 36, 31}, {75, 63, 61, 60, 58, 57, 53, 50, 47, 46, 34}, {84, 74, 73, 63, 58, 57, 56, 53, 49, 46, 42, 33}, {75, 74, 73, 63, 61, 57, 56, 54, 53, 51, 50, 47}, {61, 58, 57, 51, 48, 46, 34}, {84, 74, 63, 61, 58, 57, 55, 51, 43, 42}, {84, 74, 67, 63, 62, 43, 42, 37}, {84, 73, 72, 63, 60, 56, 53, 51, 50, 46}, {84, 83, 80, 75, 74, 73, 72, 67, 66, 61, 60, 56, 54, 50}, {84, 83, 76, 74, 67, 66, 62, 61, 55, 54, 43}, {83, 76, 74, 72, 67, 60, 58, 55, 43, 42}, {83, 81, 73, 67, 64, 62, 60, 57, 56, 55, 54}, {99, 84, 83, 82, 81, 80, 76, 73, 68, 67, 61, 60, 57, 55}, {83, 81, 80, 72, 70, 68, 66, 61, 54, 51}, {84, 83, 74, 73, 67, 56, 55, 42}, {97, 84, 82, 81, 80, 74, 72, 71, 70, 67, 66, 65, 64, 61, 56}, {84, 76, 67, 61, 59, 42}, {100, 99, 83, 82, 80, 79, 75, 73, 65, 61, 59, 58, 55}, {100, 99, 84, 81, 80, 76, 71, 59, 57, 55}, {99, 98, 83, 81, 80, 76, 73, 71, 61, 55}, {99, 98, 97, 92, 84, 83, 80, 79, 71, 70, 68, 67, 65}, {99, 98, 97, 96, 94, 80, 79, 75, 73, 69, 67, 65, 63}, {100, 98, 81, 80, 79, 70, 69, 68, 54}, {97, 95, 81, 80, 73, 70, 64, 56}, {100, 99, 94, 81, 79, 78, 73, 70, 69, 68, 59}, {95, 80, 79, 74, 70, 68, 54}, {98, 83, 79, 70, 69, 54}, {99, 97, 92, 82, 81, 76, 71, 70, 69, 65}, {98, 97, 93, 80, 79, 78, 72, 71, 69, 67}, {100, 98, 94, 82, 81, 80, 72, 55}, {81, 79, 71, 64, 62, 55}, {98, 97, 92, 91, 88, 76, 69, 67, 64}, {96, 93, 83, 81, 80, 78, 72, 70, 69, 66}, {99, 98, 96, 94, 92, 88, 81, 80, 79, 69, 67}, {99, 97, 92, 89, 82, 77, 71, 65}, {97, 96, 95, 93, 92, 91, 90, 87, 86, 78, 70}, {100, 98, 94, 91, 90, 79, 78, 69, 68}, {98, 94, 93, 89, 88, 72, 69, 66}, {97, 94, 93, 92, 91, 90, 78, 69}, {98, 97, 95, 93, 90, 89, 88, 85, 72}, {100, 95, 92, 91, 90, 89, 87, 86, 85}, {90, 89, 78, 69}, {96, 94, 90, 89, 87, 85, 78}, {93, 89, 88, 83, 77}, {99, 96, 94, 87, 86, 85}, {93, 91, 90, 86, 78}, {91, 90, 87, 86, 77}, {100, 95, 90, 89, 86}, {89, 88, 86, 77}, {87, 86, 77}, {89, 88, 77}, {96, 94, 85}, {92, 91, 87}, {93, 92, 86}, {88, 87}, {86, 85}, {79}, {85}, {88}, {86}, {87}, {87}, {87}, {95}, {93}, {}, {}, {}, {}, {}, {}, {}, {}, {}, {}, {}, {}, {}, {}, {}, {}];
n_opt = 300;
dur = [1, 6, 10, 5, 5, 6, 1, 1, 4, 3, 9, 10, 7, 7, 8, 4, 5, 10, 3, 5, 9, 8, 8, 9, 1, 5, 5, 8, 8, 9, 2, 4, 7, 2, 4, 8, 4, 6, 10, 2, 6, 7, 5, 7, 7, 4, 9, 10, 2, 2, 3, 3, 4, 10, 1, 6, 9, 2, 8, 10, 2, 3, 4, 1, 6, 10, 3, 8, 9, 5, 9, 10, 5, 5, 9, 3, 4, 8, 2, 3, 9, 1, 3, 7, 7, 8, 10, 5, 6, 7, 1, 4, 5, 4, 8, 9, 2, 9, 10, 1, 2, 10, 3, 5, 8, 2, 7, 9, 5, 7, 9, 6, 6, 8, 5, 6, 10, 3, 7, 10, 3, 6, 7, 1, 2, 8, 1, 7, 8, 2, 6, 8, 4, 4, 8, 2, 4, 7, 1, 5, 8, 1, 1, 10, 1, 1, 2, 2, 4, 9, 2, 5, 7, 2, 3, 9, 1, 2, 6, 3, 8, 9, 2, 8, 8, 5, 6, 7, 6, 6, 7, 1, 4, 9, 1, 9, 10, 2, 7, 8, 4, 7, 8, 7, 8, 8, 1, 2, 6, 7, 8, 9, 1, 2, 7, 1, 4, 4, 1, 2, 3, 3, 5, 9, 2, 2, 5, 1, 4, 5, 1, 2, 3, 4, 5, 8, 2, 4, 10, 5, 6, 9, 3, 5, 7, 6, 7, 9, 1, 7, 9, 6, 9, 10, 5, 6, 10, 4, 5, 10, 5, 6, 7, 7, 8, 10, 4, 7, 8, 3, 6, 9, 2, 3, 6, 1, 6, 10, 3, 7, 9, 4, 6, 9, 3, 7, 7, 7, 7, 8, 1, 2, 10, 3, 4, 5, 3, 7, 8, 2, 5, 7, 1, 2, 7, 1, 7, 9, 3, 5, 7, 1, 6, 9, 1, 6, 7, 3, 6, 8];
rreq = [|4, 0, 1, 0, 0, 2, 0, 4, 0, 2, 1, 0, 0, 2, 2, 4, 3, 0, 0, 0, 0, 3, 3, 1, 4, 0, 4, 3, 0, 0, 3, 3, 2, 0, 2, 0, 0, 0, 0, 0, 0, 1, 0, 1, 1, 0, 4, 0, 0, 3, 3, 4, 4, 0, 3, 3, 3, 2, 0, 0, 0, 3, 3, 1, 1, 1, 0, 0, 2, 2, 2, 2, 0, 3, 3, 0, 2, 0, 4, 0, 3, 5, 0, 0, 0, 0, 0, 0, 0, 0, 0, 1, 1, 0, 0, 0, 5, 0, 0, 4, 4, 2, 3, 3, 2, 4, 0, 3, 3, 2, 2, 0, 1, 1, 4, 4, 0, 4, 0, 1, 2, 1, 1, 4, 4, 4, 4, 0, 0, 0, 3, 3, 4, 0, 2, 0, 0, 3, 3, 2, 2, 2, 1, 0, 4, 0, 0, 3, 1, 1, 0, 4, 0, 0, 0, 1, 0, 4, 0, 3, 3, 2, 5, 4, 0, 0, 0, 0, 0, 4, 4, 2, 2, 2, 2, 2, 0, 3, 3, 0, 0, 1, 1, 0, 0, 3, 4, 4, 3, 0, 5, 0, 3, 3, 0, 0, 4, 0, 0, 0, 0, 2, 2, 2, 0, 0, 3, 0, 1, 1, 3, 0, 1, 4, 4, 0, 5, 0, 3, 4, 0, 0, 0, 0, 3, 3, 0, 0, 2, 0, 0, 3, 2, 1, 3, 0, 3, 3, 2, 2, 0, 0, 0, 4, 0, 2, 2, 0, 0, 4, 4, 0, 0, 0, 3, 0, 0, 1, 0, 0, 0, 0, 0, 0, 0, 2, 0, 5, 0, 0, 2, 1, 0, 0, 0, 0, 0, 3, 2, 0, 1, 0, 2, 2, 0, 0, 2, 2, 4, 4, 0, 0, 2, 1, 0, 0, 4, 2, 0, 0
 |0, 2, 0, 3, 3, 0, 4, 0, 4, 0, 0, 2, 4, 0, 0, 0, 0, 1, 2, 2, 2, 0, 0, 0, 0, 3, 0, 0, 3, 3, 0, 0, 0, 4, 0, 4, 3, 2, 1, 5, 2, 0, 4, 0, 0, 4, 0, 3, 1, 0, 0, 0, 0, 3, 0, 0, 0, 0, 2, 2, 3, 0, 0, 0, 0, 0, 2, 1, 0, 0, 0, 0, 3, 0, 0, 3, 0, 1, 0, 2, 0, 0, 3, 3, 3, 2, 2, 4, 4, 3, 4, 0, 0, 4, 3, 3, 0, 1, 1, 0, 0, 0, 0, 0, 0, 0, 1, 0, 0, 0, 0, 3, 0, 0, 0, 0, 1, 0, 2, 0, 0, 0, 0, 0, 0, 0, 0, 1, 1, 5, 0, 0, 0, 1, 0, 3, 3, 0, 0, 0, 0, 0, 0, 5, 0, 2, 2, 0, 0, 0, 3, 0, 3, 2, 1, 0, 2, 0, 2, 0, 0, 0, 0, 0, 3, 3, 3, 3, 3, 0, 0, 0, 0, 0, 0, 0, 2, 0, 0, 3, 3, 0, 0, 2, 2, 0, 0, 0, 0, 4, 0, 1, 0, 0, 2, 2, 0, 1, 2, 2, 2, 0, 0, 0, 4, 3, 0, 4, 0, 0, 0, 2, 0, 0, 0, 2, 0, 4, 0, 0, 3, 3, 4, 2, 0, 0, 3, 3, 0, 5, 5, 0, 0, 0, 0, 4, 0, 0, 0, 0, 3, 2, 2, 0, 2, 0, 0, 3, 2, 0, 0, 3, 3, 1, 0, 1, 1, 0, 5, 4, 4, 3, 2, 1, 2, 0, 2, 0, 3, 3, 0, 0, 4, 5, 3, 3, 5, 0, 0, 5, 0, 2, 0, 0, 2, 4, 0, 0, 0, 0, 2, 4, 0, 0, 3, 1, 0, 0, 4, 4
 |0, 0, 3, 8, 0, 1, 0, 9, 0, 0, 5, 2, 8, 7, 6, 3, 2, 0, 9, 5, 0, 5, 0, 0, 6, 3, 0, 0, 1, 0, 10, 0, 1, 0, 3, 1, 9, 0, 9, 8, 8, 5, 0, 6, 0, 0, 0, 3, 0, 0, 0, 5, 4, 3, 0, 3, 0, 6, 5, 3, 8, 0, 0, 10, 9, 0, 7, 4, 0, 1, 0, 0, 0, 3, 2, 0, 3, 0, 0, 4, 2, 4, 2, 1, 0, 0, 0, 6, 5, 5, 3, 0, 0, 6, 4, 2, 0, 3, 2, 0, 0, 0, 0, 0, 0, 6, 0, 0, 0, 0, 7, 0, 0, 1, 7, 5, 4, 0, 0, 0, 6, 0, 1, 10, 7, 6, 0, 0, 0, 0, 0, 0, 0, 0, 3, 0, 1, 1, 7, 6, 5, 3, 0, 0, 6, 0, 0, 0, 0, 2, 0, 0, 0, 10, 0, 0, 10, 9, 0, 0, 0, 0, 0, 0, 3, 0, 0, 1, 0, 3, 0, 5, 4, 0, 7, 5, 4, 0, 3, 0, 0, 3, 1, 0, 0, 6, 0, 0, 0, 0, 0, 0, 10, 0, 0, 0, 0, 4, 5, 3, 2, 0, 0, 0, 10, 0, 0, 3, 0, 0, 0, 4, 2, 0, 0, 7, 0, 7, 4, 0, 0, 0, 0, 3, 3, 0, 0, 4, 2, 2, 0, 6, 5, 3, 10, 0, 0, 6, 4, 0, 4, 4, 3, 0, 0, 7, 6, 5, 3, 8, 0, 4, 0, 6, 0, 0, 0, 0, 0, 7, 0, 0, 0, 0, 0, 0, 0, 9, 6, 0, 0, 0, 5, 0, 0, 0, 4, 3, 3, 8, 0, 5, 0, 0, 2, 0, 7, 0, 0, 0, 1, 0, 3, 1, 0, 0, 5, 7, 4, 1
 |6, 5, 0, 0, 3, 0, 8, 0, 1, 9, 0, 0, 0, 0, 0, 0, 0, 1, 0, 0, 6, 0, 7, 6, 0, 0, 3, 10, 0, 4, 0, 5, 0, 5, 0, 0, 0, 4, 0, 0, 0, 0, 7, 0, 3, 8, 5, 0, 10, 10, 9, 0, 0, 0, 9, 0, 4, 0, 0, 0, 0, 3, 2, 0, 0, 4, 0, 0, 9, 0, 5, 4, 4, 0, 0, 9, 0, 3, 10, 0, 0, 0, 0, 0, 2, 2, 1, 0, 0, 0, 0, 4, 2, 0, 0, 0, 5, 0, 0, 9, 7, 7, 3, 2, 1, 0, 3, 3, 1, 1, 0, 6, 6, 0, 0, 0, 0, 9, 8, 7, 0, 6, 0, 0, 0, 0, 9, 6, 3, 7, 7, 5, 6, 4, 0, 8, 0, 0, 0, 0, 0, 0, 5, 4, 0, 5, 3, 9, 7, 0, 2, 2, 1, 0, 2, 1, 0, 0, 3, 5, 3, 2, 3, 2, 0, 7, 5, 0, 8, 0, 8, 0, 0, 2, 0, 0, 0, 5, 0, 3, 6, 0, 0, 10, 7, 0, 8, 6, 6, 5, 4, 3, 0, 1, 1, 7, 3, 0, 0, 0, 0, 9, 7, 6, 0, 1, 1, 0, 6, 5, 8, 0, 0, 4, 3, 0, 7, 0, 0, 7, 5, 3, 8, 0, 0, 3, 3, 0, 0, 0, 8, 0, 0, 0, 0, 6, 3, 0, 0, 2, 0, 0, 0, 9, 5, 0, 0, 0, 0, 0, 9, 0, 10, 0, 8, 5, 4, 2, 8, 0, 4, 9, 6, 6, 4, 3, 3, 0, 0, 2, 3, 2, 0, 8, 7, 3, 0, 0, 0, 0, 8, 0, 7, 4, 0, 6, 0, 5, 2, 1, 0, 2, 0, 0, 1, 1, 0, 0, 0, 0|];